63 62 56 51 48 23 66 
14 50 20 74 
52 13 10 53 11 60 
15 59 25 22 24 
45 70 73 8 4 1 
67 61 46 6 3 
69 47 17 12 68 41 39 
64 72 71 43 44 54 55 
65 21 42 37 36 
38 2 35 
31 27 29 30 34 32 26 33 
75 18 49 58 
5 7 40 
9 16 57 
19 
28 

